50
13629

865 1065.0
395 595.0
777 977.0
912 1212.0
431 631.0
42 342.0
266 466.0
989 1189.0
524 724.0
498 798.0
415 615.0
941 1141.0
803 1003.0
850 1050.0
311 511.0
992 1192.0
489 689.0
367 567.0
598 798.0
914 1114.0
930 1230.0
224 424.0
517 717.0
143 343.0
289 489.0
144 444.0
774 1074.0
98 298.0
634 834.0
819 1019.0
257 457.0
932 1132.0
546 846.0
723 923.0
830 1030.0
617 817.0
924 1224.0
151 351.0
318 618.0
102 402.0
748 948.0
76 276.0
921 1121.0
871 1071.0
701 901.0
339 539.0
484 684.0
574 774.0
104 304.0
363 563.0
